573
3954
248
1338
666
1347
58
1251
217
395
178
810
709
1342
65
105
13086
152
788
744
105
999
151
914
27
97
66
193
1232
3902
4050
50
4498
816
297
857
296
2137
56
1282
3549
0
88
904
205
577
0
136
645
141
578
1555
356
845
571
358
2665
89
121
3645
192
35
102
510
899
733
310
61
171
49
23119
1187
34
22
338
149
346
332
301
437
186
336
493
109
95
1024
610
102
157
26
925
174
424
59
251
158
380
7729
221
132
